NAME : instances/clustered-mixed-tsp/instance-88.tsp
COMMENT : No Comment
TYPE : TSP
DIMENSION: 49
EDGE_WEIGHT_TYPE : EUC_2D
NODE_COORD_SECTION
1 822 450 
2 156 772 
3 54 760 
4 90 922 
5 18 216 
6 890 726 
7 272 500 
8 -20 752 
9 380 812 
10 1038 316 
11 12 898 
12 756 492 
13 254 800 
14 656 650 
15 108 288 
16 6 742 
17 126 916 
18 656 662 
19 542 668 
20 320 836 
21 560 806 
22 96 922 
23 -62 764 
24 180 856 
25 908 762 
26 248 506 
27 54 910 
28 978 304 
29 308 710 
30 18 306 
31 48 814 
32 344 512 
33 126 216 
34 72 910 
35 6 264 
36 720 420 
37 660 536 
38 708 488 
39 186 922 
40 902 714 
41 338 824 
42 884 702 
43 738 330 
44 102 820 
45 596 746 
46 392 830 
47 768 432 
48 24 354 
49 90 330 
EOF
